
(set-logic HORN)
(declare-fun Z_2135 () Int)
(declare-fun S_497 (Int) Int)
(declare-fun Z_2132 () Int)
(declare-fun S_496 (Int) Int)
(declare-fun diseqInt (Int Int) Bool)
(declare-fun unS_717 (Int Int) Bool)
(declare-fun isZ_464 (Int) Bool)
(declare-fun isS_464 (Int) Bool)
(assert (forall ((x_56173 Int))
	(unS_717 x_56173 (S_497 x_56173))))
(assert (isZ_464 Z_2135))
(assert (forall ((x_56175 Int))
	(isS_464 (S_497 x_56175))))
(assert (forall ((x_56176 Int))
	(diseqInt Z_2135 (S_497 x_56176))))
(assert (forall ((x_56177 Int))
	(diseqInt (S_497 x_56177) Z_2135)))
(assert (forall ((x_56178 Int) (x_56179 Int))
	(=> (diseqInt x_56178 x_56179) (diseqInt (S_497 x_56178) (S_497 x_56179)))))
(declare-fun add_384 (Int Int Int) Bool)
(declare-fun minus_379 (Int Int Int) Bool)
(declare-fun le_358 (Int Int) Bool)
(declare-fun ge_358 (Int Int) Bool)
(declare-fun lt_378 (Int Int) Bool)
(declare-fun gt_361 (Int Int) Bool)
(declare-fun mult_359 (Int Int Int) Bool)
(declare-fun div_358 (Int Int Int) Bool)
(declare-fun mod_360 (Int Int Int) Bool)
(assert (forall ((y_2373 Int))
	(add_384 y_2373 Z_2135 y_2373)))
(assert (forall ((x_56149 Int) (y_2373 Int) (r_431 Int))
	(=> (add_384 r_431 x_56149 y_2373) (add_384 (S_497 r_431) (S_497 x_56149) y_2373))))
(assert (forall ((y_2373 Int))
	(minus_379 Z_2135 Z_2135 y_2373)))
(assert (forall ((x_56149 Int) (y_2373 Int) (r_431 Int))
	(=> (minus_379 r_431 x_56149 y_2373) (minus_379 (S_497 r_431) (S_497 x_56149) y_2373))))
(assert (forall ((y_2373 Int))
	(le_358 Z_2135 y_2373)))
(assert (forall ((x_56149 Int) (y_2373 Int))
	(=> (le_358 x_56149 y_2373) (le_358 (S_497 x_56149) (S_497 y_2373)))))
(assert (forall ((y_2373 Int))
	(ge_358 y_2373 Z_2135)))
(assert (forall ((x_56149 Int) (y_2373 Int))
	(=> (ge_358 x_56149 y_2373) (ge_358 (S_497 x_56149) (S_497 y_2373)))))
(assert (forall ((y_2373 Int))
	(lt_378 Z_2135 (S_497 y_2373))))
(assert (forall ((x_56149 Int) (y_2373 Int))
	(=> (lt_378 x_56149 y_2373) (lt_378 (S_497 x_56149) (S_497 y_2373)))))
(assert (forall ((y_2373 Int))
	(gt_361 (S_497 y_2373) Z_2135)))
(assert (forall ((x_56149 Int) (y_2373 Int))
	(=> (gt_361 x_56149 y_2373) (gt_361 (S_497 x_56149) (S_497 y_2373)))))
(assert (forall ((y_2373 Int))
	(mult_359 Z_2135 Z_2135 y_2373)))
(assert (forall ((x_56149 Int) (y_2373 Int) (r_431 Int) (z_2136 Int))
	(=> (and (mult_359 r_431 x_56149 y_2373) (add_384 z_2136 r_431 y_2373)) (mult_359 z_2136 (S_497 x_56149) y_2373))))
(assert (forall ((x_56149 Int) (y_2373 Int))
	(=> (lt_378 x_56149 y_2373) (div_358 Z_2135 x_56149 y_2373))))
(assert (forall ((x_56149 Int) (y_2373 Int) (r_431 Int) (z_2136 Int))
	(=> (and (ge_358 x_56149 y_2373) (minus_379 z_2136 x_56149 y_2373) (div_358 r_431 z_2136 y_2373)) (div_358 (S_497 r_431) x_56149 y_2373))))
(assert (forall ((x_56149 Int) (y_2373 Int))
	(=> (lt_378 x_56149 y_2373) (mod_360 x_56149 x_56149 y_2373))))
(assert (forall ((x_56149 Int) (y_2373 Int) (r_431 Int) (z_2136 Int))
	(=> (and (ge_358 x_56149 y_2373) (minus_379 z_2136 x_56149 y_2373) (mod_360 r_431 z_2136 y_2373)) (mod_360 r_431 x_56149 y_2373))))
(declare-datatypes ((list_258 0)) (((nil_288) (cons_258 (head_516 Int) (tail_516 list_258)))))
(declare-fun diseqlist_258 (list_258 list_258) Bool)
(declare-fun head_517 (Int list_258) Bool)
(declare-fun tail_517 (list_258 list_258) Bool)
(declare-fun isnil_288 (list_258) Bool)
(declare-fun iscons_258 (list_258) Bool)
(assert (forall ((x_56151 Int) (x_56152 list_258))
	(head_517 x_56151 (cons_258 x_56151 x_56152))))
(assert (forall ((x_56151 Int) (x_56152 list_258))
	(tail_517 x_56152 (cons_258 x_56151 x_56152))))
(assert (isnil_288 nil_288))
(assert (forall ((x_56154 Int) (x_56155 list_258))
	(iscons_258 (cons_258 x_56154 x_56155))))
(assert (forall ((x_56156 Int) (x_56157 list_258))
	(diseqlist_258 nil_288 (cons_258 x_56156 x_56157))))
(assert (forall ((x_56158 Int) (x_56159 list_258))
	(diseqlist_258 (cons_258 x_56158 x_56159) nil_288)))
(assert (forall ((x_56160 Int) (x_56161 list_258) (x_56162 Int) (x_56163 list_258))
	(=> (diseqInt x_56160 x_56162) (diseqlist_258 (cons_258 x_56160 x_56161) (cons_258 x_56162 x_56163)))))
(assert (forall ((x_56160 Int) (x_56161 list_258) (x_56162 Int) (x_56163 list_258))
	(=> (diseqlist_258 x_56161 x_56163) (diseqlist_258 (cons_258 x_56160 x_56161) (cons_258 x_56162 x_56163)))))
(declare-fun diseqInt (Int Int) Bool)
(declare-fun projS_211 (Int Int) Bool)
(declare-fun isZ_463 (Int) Bool)
(declare-fun isS_463 (Int) Bool)
(assert (forall ((x_56165 Int))
	(projS_211 x_56165 (S_496 x_56165))))
(assert (isZ_463 Z_2132))
(assert (forall ((x_56167 Int))
	(isS_463 (S_496 x_56167))))
(assert (forall ((x_56168 Int))
	(diseqInt Z_2132 (S_496 x_56168))))
(assert (forall ((x_56169 Int))
	(diseqInt (S_496 x_56169) Z_2132)))
(assert (forall ((x_56170 Int) (x_56171 Int))
	(=> (diseqInt x_56170 x_56171) (diseqInt (S_496 x_56170) (S_496 x_56171)))))
(declare-fun qrev_4 (list_258 list_258 list_258) Bool)
(assert (forall ((x_56135 list_258) (z_2133 Int) (xs_687 list_258) (y_2369 list_258))
	(=> (qrev_4 x_56135 xs_687 (cons_258 z_2133 y_2369)) (qrev_4 x_56135 (cons_258 z_2133 xs_687) y_2369))))
(assert (forall ((x_56137 list_258))
	(qrev_4 x_56137 nil_288 x_56137)))
(declare-fun length_51 (Int list_258) Bool)
(assert (forall ((x_56139 Int) (y_2370 Int) (xs_688 list_258))
	(=> (length_51 x_56139 xs_688) (length_51 (S_496 x_56139) (cons_258 y_2370 xs_688)))))
(assert (length_51 Z_2132 nil_288))
(declare-fun x_56132 (Int Int Int) Bool)
(assert (forall ((x_56142 Int) (z_2134 Int) (y_2371 Int))
	(=> (x_56132 x_56142 z_2134 y_2371) (x_56132 (S_496 x_56142) (S_496 z_2134) y_2371))))
(assert (forall ((x_56143 Int))
	(x_56132 x_56143 Z_2132 x_56143)))
(assert (forall ((x_56144 list_258) (x_56145 Int) (x_56146 Int) (x_56147 Int) (x_56148 Int) (x_56134 list_258) (y_2372 list_258))
	(=> (and true (diseqInt x_56145 x_56148) (qrev_4 x_56144 x_56134 y_2372) (length_51 x_56145 x_56144) (length_51 x_56146 x_56134) (length_51 x_56147 y_2372) (x_56132 x_56148 x_56146 x_56147)) false)))
(check-sat)
